NAME          DCAP_3_4_2_200_SS61
ROWS
 N  OBJ
 L  CON1
 L  CON2
 L  CON3
 L  CON4
 L  CON5
 L  CON6
 L  CON7
 L  CON8
 L  CON9
 L  CON10
 L  CON11
 L  CON12
 E  CON13
 E  CON14
 E  CON15
 E  CON16
 E  CON17
 E  CON18
 E  CON19
 E  CON20
COLUMNS
    x[1,1]    OBJ       6.180167      CON1      1.000000    
    x[1,1]    CON7      -1.000000     CON8      -1.000000   
    x[1,2]    OBJ       5.039546      CON2      1.000000    
    x[1,2]    CON8      -1.000000   
    x[2,1]    OBJ       6.732585      CON3      1.000000    
    x[2,1]    CON9      -1.000000     CON10     -1.000000   
    x[2,2]    OBJ       7.443064      CON4      1.000000    
    x[2,2]    CON10     -1.000000   
    x[3,1]    OBJ       6.563535      CON5      1.000000    
    x[3,1]    CON11     -1.000000     CON12     -1.000000   
    x[3,2]    OBJ       6.054841      CON6      1.000000    
    x[3,2]    CON12     -1.000000   
    MARKER    'MARKER'                'INTORG'
    u[1,1]    OBJ       48.076654     CON1      -1.000000   
    u[1,2]    OBJ       49.466655     CON2      -1.000000   
    u[2,1]    OBJ       49.996186     CON3      -1.000000   
    u[2,2]    OBJ       32.230043     CON4      -1.000000   
    u[3,1]    OBJ       20.066487     CON5      -1.000000   
    u[3,2]    OBJ       27.484319     CON6      -1.000000   
    y[1,1,1]  OBJ       7.782692      CON7      1.181402    
    y[1,1,1]  CON13     1.000000    
    y[1,1,2]  OBJ       8.360009      CON8      1.497288    
    y[1,1,2]  CON14     1.000000    
    y[1,2,1]  OBJ       5.228110      CON7      1.057137    
    y[1,2,1]  CON15     1.000000    
    y[1,2,2]  OBJ       7.914959      CON8      1.183351    
    y[1,2,2]  CON16     1.000000    
    y[1,3,1]  OBJ       7.608021      CON7      1.310312    
    y[1,3,1]  CON17     1.000000    
    y[1,3,2]  OBJ       5.719484      CON8      1.114396    
    y[1,3,2]  CON18     1.000000    
    y[1,4,1]  OBJ       6.379761      CON7      0.622806    
    y[1,4,1]  CON19     1.000000    
    y[1,4,2]  OBJ       7.040750      CON8      0.907092    
    y[1,4,2]  CON20     1.000000    
    y[2,1,1]  OBJ       8.644630      CON9      1.181402    
    y[2,1,1]  CON13     1.000000    
    y[2,1,2]  OBJ       8.786164      CON10     1.497288    
    y[2,1,2]  CON14     1.000000    
    y[2,2,1]  OBJ       7.273910      CON9      1.057137    
    y[2,2,1]  CON15     1.000000    
    y[2,2,2]  OBJ       7.732807      CON10     1.183351    
    y[2,2,2]  CON16     1.000000    
    y[2,3,1]  OBJ       6.319725      CON9      1.310312    
    y[2,3,1]  CON17     1.000000    
    y[2,3,2]  OBJ       9.798038      CON10     1.114396    
    y[2,3,2]  CON18     1.000000    
    y[2,4,1]  OBJ       6.912725      CON9      0.622806    
    y[2,4,1]  CON19     1.000000    
    y[2,4,2]  OBJ       9.323784      CON10     0.907092    
    y[2,4,2]  CON20     1.000000    
    y[3,1,1]  OBJ       6.876880      CON11     1.181402    
    y[3,1,1]  CON13     1.000000    
    y[3,1,2]  OBJ       9.255782      CON12     1.497288    
    y[3,1,2]  CON14     1.000000    
    y[3,2,1]  OBJ       7.844145      CON11     1.057137    
    y[3,2,1]  CON15     1.000000    
    y[3,2,2]  OBJ       9.972332      CON12     1.183351    
    y[3,2,2]  CON16     1.000000    
    y[3,3,1]  OBJ       8.485227      CON11     1.310312    
    y[3,3,1]  CON17     1.000000    
    y[3,3,2]  OBJ       6.043278      CON12     1.114396    
    y[3,3,2]  CON18     1.000000    
    y[3,4,1]  OBJ       7.201534      CON11     0.622806    
    y[3,4,1]  CON19     1.000000    
    y[3,4,2]  OBJ       9.629453      CON12     0.907092    
    y[3,4,2]  CON20     1.000000    
    z[1,1]    OBJ       721.486423    CON13     1.000000    
    z[1,2]    OBJ       872.068024    CON14     1.000000    
    z[2,1]    OBJ       948.016885    CON15     1.000000    
    z[2,2]    OBJ       690.757645    CON16     1.000000    
    z[3,1]    OBJ       819.314741    CON17     1.000000    
    z[3,2]    OBJ       571.293579    CON18     1.000000    
    z[4,1]    OBJ       934.219368    CON19     1.000000    
    z[4,2]    OBJ       522.708293    CON20     1.000000    
    MARKER    'MARKER'                 'INTEND'
RHS
    RHS       CON1      -0.000000     CON2      -0.000000   
    RHS       CON3      -0.000000     CON4      -0.000000   
    RHS       CON5      -0.000000     CON6      -0.000000   
    RHS       CON7      -0.000000     CON8      -0.000000   
    RHS       CON9      -0.000000     CON10     -0.000000   
    RHS       CON11     -0.000000     CON12     -0.000000   
    RHS       CON13     1.000000      CON14     1.000000    
    RHS       CON15     1.000000      CON16     1.000000    
    RHS       CON17     1.000000      CON18     1.000000    
    RHS       CON19     1.000000      CON20     1.000000    
BOUNDS
 BV BOUND     u[1,1]  
 BV BOUND     u[1,2]  
 BV BOUND     u[2,1]  
 BV BOUND     u[2,2]  
 BV BOUND     u[3,1]  
 BV BOUND     u[3,2]  
 BV BOUND     y[1,1,1]
 BV BOUND     y[1,1,2]
 BV BOUND     y[1,2,1]
 BV BOUND     y[1,2,2]
 BV BOUND     y[1,3,1]
 BV BOUND     y[1,3,2]
 BV BOUND     y[1,4,1]
 BV BOUND     y[1,4,2]
 BV BOUND     y[2,1,1]
 BV BOUND     y[2,1,2]
 BV BOUND     y[2,2,1]
 BV BOUND     y[2,2,2]
 BV BOUND     y[2,3,1]
 BV BOUND     y[2,3,2]
 BV BOUND     y[2,4,1]
 BV BOUND     y[2,4,2]
 BV BOUND     y[3,1,1]
 BV BOUND     y[3,1,2]
 BV BOUND     y[3,2,1]
 BV BOUND     y[3,2,2]
 BV BOUND     y[3,3,1]
 BV BOUND     y[3,3,2]
 BV BOUND     y[3,4,1]
 BV BOUND     y[3,4,2]
 BV BOUND     z[1,1]  
 BV BOUND     z[1,2]  
 BV BOUND     z[2,1]  
 BV BOUND     z[2,2]  
 BV BOUND     z[3,1]  
 BV BOUND     z[3,2]  
 BV BOUND     z[4,1]  
 BV BOUND     z[4,2]  
ENDATA
